553 554 555 46 45 44 43 47 48 49 50 84 51 52 54 53 55 56 83 82 57 58 59 81 80 79 78 62 61 60 63 64 76 77 88 89 90 87 86 85 91 92 93 94 95 96 97 98 99 100 102 103 104 105 106 118 119 120 121 122 123 71 72 73 74 75 65 66 67 68 70 69 124 125 126 117 116 127 128 129 130 131 132 133 134 135 136 137 138 139 140 141 142 144 143 151 150 149 152 148 147 146 145 158 157 159 156 155 153 154 165 203 204 202 208 207 206 205 198 199 200 201 164 166 167 163 168 162 160 161 113 112 114 115 110 111 172 170 171 169 180 181 179 178 177 176 175 174 173 108 109 107 542 541 543 544 547 546 545 548 549 564 560 561 562 563 565 566 567 475 476 477 478 479 480 481 482 483 484 485 486 490 491 492 493 525 524 521 522 523 526 528 529 530 489 488 534 487 535 536 537 539 538 540 187 188 186 182 183 185 184 197 196 195 194 209 210 211 212 213 214 215 216 217 223 224 222 221 220 218 219 193 192 191 190 226 225 189 227 228 229 230 231 533 532 531 233 232 234 235 236 238 239 240 237 509 510 511 512 527 513 514 515 516 517 520 518 519 497 496 465 464 463 462 461 460 459 454 439 442 443 444 445 446 447 448 449 450 441 440 453 452 499 500 501 498 502 503 504 505 308 309 310 311 451 312 313 314 315 316 317 321 320 319 318 305 306 304 303 307 506 507 508 302 301 241 242 243 244 245 246 247 248 249 250 251 252 254 253 255 256 257 300 299 258 259 260 261 262 263 264 265 266 298 297 296 295 294 293 270 269 268 267 271 272 273 274 275 292 291 290 289 288 276 277 278 279 282 281 280 287 286 285 284 283 334 335 336 337 338 339 333 332 331 330 340 341 344 343 342 366 329 328 327 326 325 324 323 322 373 374 375 376 377 378 379 380 381 390 389 388 387 408 407 406 405 404 400 399 398 397 391 392 393 394 395 396 371 372 370 369 368 367 365 364 345 346 362 363 361 347 348 349 350 351 352 415 416 414 413 353 354 355 357 358 359 360 401 402 356 412 411 410 418 417 419 420 421 422 423 424 425 383 384 403 409 385 386 382 426 427 428 429 431 430 432 433 434 435 436 437 438 455 456 457 458 573 572 571 466 467 468 469 470 471 495 494 472 473 474 570 569 568 20 19 18 17 8 7 6 5 0 1 2 3 4 9 10 11 16 15 14 13 12 23 21 24 25 26 27 28 29 22 31 30 32 36 37 38 39 42 41 40 35 33 34 556 557 558 559 550 551 101 552